1039	653	774	1125	267	554	441	940	363	863
903	995	430	119	355	0	242	1077	711	1171
144	227	984	1039	899	469	311	821	83	0
827	457	144	626	527	761	686	50	1003	940
363	1077	524	0	98	686	591	754	268	186
1125	0	604	852	186	267	375	684	524	790
623	99	874	527	430	940	1039	0	777	1100
554	304	253	171	0	375	98	469	616	711
0	518	684	253	774	850	171	334	908	1003
227	375	1124	69	984	1065	761	554	457	610
